12
0 39 45 96 47 17 86 19 86 66 26 72 
66 0 92 32 18 14 39 66 91 69 20 3 
45 11 0 11 17 7 21 19 82 100 68 28 
89 95 80 0 77 85 80 50 35 18 17 12 
6 14 21 33 0 19 22 81 85 93 9 4 
53 96 33 21 6 0 51 97 90 38 64 77 
46 40 62 28 14 77 0 34 23 65 11 14 
19 55 81 10 1 80 43 0 76 55 44 79 
83 98 61 16 90 18 26 62 0 33 74 47 
34 72 40 70 80 51 79 76 10 0 62 39 
13 74 26 96 35 23 15 19 94 64 0 32 
57 24 22 12 34 67 71 38 30 31 83 0 
